; CASCADE-V attribution fairness proof certificate
; receipt_id: output_014
; n_sources: 80

(set-logic QF_LRA)

(declare-const w_0 Real)
(declare-const w_1 Real)
(declare-const w_2 Real)
(declare-const w_3 Real)
(declare-const w_4 Real)
(declare-const w_5 Real)
(declare-const w_6 Real)
(declare-const w_7 Real)
(declare-const w_8 Real)
(declare-const w_9 Real)
(declare-const w_10 Real)
(declare-const w_11 Real)
(declare-const w_12 Real)
(declare-const w_13 Real)
(declare-const w_14 Real)
(declare-const w_15 Real)
(declare-const w_16 Real)
(declare-const w_17 Real)
(declare-const w_18 Real)
(declare-const w_19 Real)
(declare-const w_20 Real)
(declare-const w_21 Real)
(declare-const w_22 Real)
(declare-const w_23 Real)
(declare-const w_24 Real)
(declare-const w_25 Real)
(declare-const w_26 Real)
(declare-const w_27 Real)
(declare-const w_28 Real)
(declare-const w_29 Real)
(declare-const w_30 Real)
(declare-const w_31 Real)
(declare-const w_32 Real)
(declare-const w_33 Real)
(declare-const w_34 Real)
(declare-const w_35 Real)
(declare-const w_36 Real)
(declare-const w_37 Real)
(declare-const w_38 Real)
(declare-const w_39 Real)
(declare-const w_40 Real)
(declare-const w_41 Real)
(declare-const w_42 Real)
(declare-const w_43 Real)
(declare-const w_44 Real)
(declare-const w_45 Real)
(declare-const w_46 Real)
(declare-const w_47 Real)
(declare-const w_48 Real)
(declare-const w_49 Real)
(declare-const w_50 Real)
(declare-const w_51 Real)
(declare-const w_52 Real)
(declare-const w_53 Real)
(declare-const w_54 Real)
(declare-const w_55 Real)
(declare-const w_56 Real)
(declare-const w_57 Real)
(declare-const w_58 Real)
(declare-const w_59 Real)
(declare-const w_60 Real)
(declare-const w_61 Real)
(declare-const w_62 Real)
(declare-const w_63 Real)
(declare-const w_64 Real)
(declare-const w_65 Real)
(declare-const w_66 Real)
(declare-const w_67 Real)
(declare-const w_68 Real)
(declare-const w_69 Real)
(declare-const w_70 Real)
(declare-const w_71 Real)
(declare-const w_72 Real)
(declare-const w_73 Real)
(declare-const w_74 Real)
(declare-const w_75 Real)
(declare-const w_76 Real)
(declare-const w_77 Real)
(declare-const w_78 Real)
(declare-const w_79 Real)

; --- weight values ---
(assert (= w_0 0.0000000000))
(assert (= w_1 0.0000000000))
(assert (= w_2 0.0000000000))
(assert (= w_3 0.0000000000))
(assert (= w_4 0.0000000000))
(assert (= w_5 0.0000000000))
(assert (= w_6 0.0000000000))
(assert (= w_7 0.0000000000))
(assert (= w_8 0.0518191291))
(assert (= w_9 0.0000000000))
(assert (= w_10 0.0157690429))
(assert (= w_11 0.0152590892))
(assert (= w_12 0.0152562922))
(assert (= w_13 0.0158734908))
(assert (= w_14 0.0000000000))
(assert (= w_15 0.0000000000))
(assert (= w_16 0.0174733430))
(assert (= w_17 0.0223958797))
(assert (= w_18 0.0159842857))
(assert (= w_19 0.0000000000))
(assert (= w_20 0.0145150700))
(assert (= w_21 0.0171449413))
(assert (= w_22 0.0165357118))
(assert (= w_23 0.0163050655))
(assert (= w_24 0.0353583328))
(assert (= w_25 0.0000000000))
(assert (= w_26 0.0000000000))
(assert (= w_27 0.0000000000))
(assert (= w_28 0.0000000000))
(assert (= w_29 0.0422777581))
(assert (= w_30 0.0000000000))
(assert (= w_31 0.0558862533))
(assert (= w_32 0.0404461932))
(assert (= w_33 0.0370139151))
(assert (= w_34 0.0000000000))
(assert (= w_35 0.0404628839))
(assert (= w_36 0.0526084226))
(assert (= w_37 0.0458249644))
(assert (= w_38 0.0525129674))
(assert (= w_39 0.0440122009))
(assert (= w_40 0.0507327617))
(assert (= w_41 0.0000000000))
(assert (= w_42 0.0366915146))
(assert (= w_43 0.0350315446))
(assert (= w_44 0.0407223247))
(assert (= w_45 0.0000000000))
(assert (= w_46 0.0000000000))
(assert (= w_47 0.0000000000))
(assert (= w_48 0.0000000000))
(assert (= w_49 0.0000000000))
(assert (= w_50 0.0000000000))
(assert (= w_51 0.0000000000))
(assert (= w_52 0.0000000000))
(assert (= w_53 0.0000000000))
(assert (= w_54 0.0387709957))
(assert (= w_55 0.0390892887))
(assert (= w_56 0.0394653063))
(assert (= w_57 0.0387610306))
(assert (= w_58 0.0000000000))
(assert (= w_59 0.0000000000))
(assert (= w_60 0.0000000000))
(assert (= w_61 0.0000000000))
(assert (= w_62 0.0000000000))
(assert (= w_63 0.0000000000))
(assert (= w_64 0.0000000000))
(assert (= w_65 0.0000000000))
(assert (= w_66 0.0000000000))
(assert (= w_67 0.0000000000))
(assert (= w_68 0.0000000000))
(assert (= w_69 0.0000000000))
(assert (= w_70 0.0000000000))
(assert (= w_71 0.0000000000))
(assert (= w_72 0.0000000000))
(assert (= w_73 0.0000000000))
(assert (= w_74 0.0000000000))
(assert (= w_75 0.0000000000))
(assert (= w_76 0.0000000000))
(assert (= w_77 0.0000000000))
(assert (= w_78 0.0000000000))
(assert (= w_79 0.0000000000))

; --- efficiency: sum(weights) ≈ 1.000000 ---
(assert (<= (- (+ w_0 w_1 w_2 w_3 w_4 w_5 w_6 w_7 w_8 w_9 w_10 w_11 w_12 w_13 w_14 w_15 w_16 w_17 w_18 w_19 w_20 w_21 w_22 w_23 w_24 w_25 w_26 w_27 w_28 w_29 w_30 w_31 w_32 w_33 w_34 w_35 w_36 w_37 w_38 w_39 w_40 w_41 w_42 w_43 w_44 w_45 w_46 w_47 w_48 w_49 w_50 w_51 w_52 w_53 w_54 w_55 w_56 w_57 w_58 w_59 w_60 w_61 w_62 w_63 w_64 w_65 w_66 w_67 w_68 w_69 w_70 w_71 w_72 w_73 w_74 w_75 w_76 w_77 w_78 w_79) 1.0000000000) 0.001))
(assert (>= (- (+ w_0 w_1 w_2 w_3 w_4 w_5 w_6 w_7 w_8 w_9 w_10 w_11 w_12 w_13 w_14 w_15 w_16 w_17 w_18 w_19 w_20 w_21 w_22 w_23 w_24 w_25 w_26 w_27 w_28 w_29 w_30 w_31 w_32 w_33 w_34 w_35 w_36 w_37 w_38 w_39 w_40 w_41 w_42 w_43 w_44 w_45 w_46 w_47 w_48 w_49 w_50 w_51 w_52 w_53 w_54 w_55 w_56 w_57 w_58 w_59 w_60 w_61 w_62 w_63 w_64 w_65 w_66 w_67 w_68 w_69 w_70 w_71 w_72 w_73 w_74 w_75 w_76 w_77 w_78 w_79) 1.0000000000) (- 0.001)))

; --- symmetry: similar sources have equal weights ---
(assert (<= (- w_2 w_3) 0.001))
(assert (>= (- w_2 w_3) (- 0.001)))
(assert (<= (- w_2 w_4) 0.001))
(assert (>= (- w_2 w_4) (- 0.001)))
(assert (<= (- w_2 w_5) 0.001))
(assert (>= (- w_2 w_5) (- 0.001)))
(assert (<= (- w_2 w_6) 0.001))
(assert (>= (- w_2 w_6) (- 0.001)))
(assert (<= (- w_2 w_7) 0.001))
(assert (>= (- w_2 w_7) (- 0.001)))
(assert (<= (- w_3 w_4) 0.001))
(assert (>= (- w_3 w_4) (- 0.001)))
(assert (<= (- w_3 w_5) 0.001))
(assert (>= (- w_3 w_5) (- 0.001)))
(assert (<= (- w_3 w_6) 0.001))
(assert (>= (- w_3 w_6) (- 0.001)))
(assert (<= (- w_3 w_7) 0.001))
(assert (>= (- w_3 w_7) (- 0.001)))
(assert (<= (- w_4 w_5) 0.001))
(assert (>= (- w_4 w_5) (- 0.001)))
(assert (<= (- w_4 w_6) 0.001))
(assert (>= (- w_4 w_6) (- 0.001)))
(assert (<= (- w_4 w_7) 0.001))
(assert (>= (- w_4 w_7) (- 0.001)))
(assert (<= (- w_5 w_6) 0.001))
(assert (>= (- w_5 w_6) (- 0.001)))
(assert (<= (- w_5 w_7) 0.001))
(assert (>= (- w_5 w_7) (- 0.001)))
(assert (<= (- w_6 w_7) 0.001))
(assert (>= (- w_6 w_7) (- 0.001)))
(assert (<= (- w_10 w_11) 0.001))
(assert (>= (- w_10 w_11) (- 0.001)))
(assert (<= (- w_10 w_12) 0.001))
(assert (>= (- w_10 w_12) (- 0.001)))
(assert (<= (- w_10 w_13) 0.001))
(assert (>= (- w_10 w_13) (- 0.001)))
(assert (<= (- w_10 w_14) 0.001))
(assert (>= (- w_10 w_14) (- 0.001)))
(assert (<= (- w_10 w_15) 0.001))
(assert (>= (- w_10 w_15) (- 0.001)))
(assert (<= (- w_10 w_16) 0.001))
(assert (>= (- w_10 w_16) (- 0.001)))
(assert (<= (- w_10 w_17) 0.001))
(assert (>= (- w_10 w_17) (- 0.001)))
(assert (<= (- w_10 w_18) 0.001))
(assert (>= (- w_10 w_18) (- 0.001)))
(assert (<= (- w_10 w_19) 0.001))
(assert (>= (- w_10 w_19) (- 0.001)))
(assert (<= (- w_10 w_20) 0.001))
(assert (>= (- w_10 w_20) (- 0.001)))
(assert (<= (- w_10 w_21) 0.001))
(assert (>= (- w_10 w_21) (- 0.001)))
(assert (<= (- w_10 w_22) 0.001))
(assert (>= (- w_10 w_22) (- 0.001)))
(assert (<= (- w_10 w_23) 0.001))
(assert (>= (- w_10 w_23) (- 0.001)))
(assert (<= (- w_11 w_12) 0.001))
(assert (>= (- w_11 w_12) (- 0.001)))
(assert (<= (- w_11 w_13) 0.001))
(assert (>= (- w_11 w_13) (- 0.001)))
(assert (<= (- w_11 w_14) 0.001))
(assert (>= (- w_11 w_14) (- 0.001)))
(assert (<= (- w_11 w_15) 0.001))
(assert (>= (- w_11 w_15) (- 0.001)))
(assert (<= (- w_11 w_16) 0.001))
(assert (>= (- w_11 w_16) (- 0.001)))
(assert (<= (- w_11 w_17) 0.001))
(assert (>= (- w_11 w_17) (- 0.001)))
(assert (<= (- w_11 w_18) 0.001))
(assert (>= (- w_11 w_18) (- 0.001)))
(assert (<= (- w_11 w_19) 0.001))
(assert (>= (- w_11 w_19) (- 0.001)))
(assert (<= (- w_11 w_20) 0.001))
(assert (>= (- w_11 w_20) (- 0.001)))
(assert (<= (- w_11 w_21) 0.001))
(assert (>= (- w_11 w_21) (- 0.001)))
(assert (<= (- w_11 w_22) 0.001))
(assert (>= (- w_11 w_22) (- 0.001)))
(assert (<= (- w_11 w_23) 0.001))
(assert (>= (- w_11 w_23) (- 0.001)))
(assert (<= (- w_12 w_13) 0.001))
(assert (>= (- w_12 w_13) (- 0.001)))
(assert (<= (- w_12 w_14) 0.001))
(assert (>= (- w_12 w_14) (- 0.001)))
(assert (<= (- w_12 w_15) 0.001))
(assert (>= (- w_12 w_15) (- 0.001)))
(assert (<= (- w_12 w_16) 0.001))
(assert (>= (- w_12 w_16) (- 0.001)))
(assert (<= (- w_12 w_17) 0.001))
(assert (>= (- w_12 w_17) (- 0.001)))
(assert (<= (- w_12 w_18) 0.001))
(assert (>= (- w_12 w_18) (- 0.001)))
(assert (<= (- w_12 w_19) 0.001))
(assert (>= (- w_12 w_19) (- 0.001)))
(assert (<= (- w_12 w_20) 0.001))
(assert (>= (- w_12 w_20) (- 0.001)))
(assert (<= (- w_12 w_21) 0.001))
(assert (>= (- w_12 w_21) (- 0.001)))
(assert (<= (- w_12 w_22) 0.001))
(assert (>= (- w_12 w_22) (- 0.001)))
(assert (<= (- w_12 w_23) 0.001))
(assert (>= (- w_12 w_23) (- 0.001)))
(assert (<= (- w_13 w_14) 0.001))
(assert (>= (- w_13 w_14) (- 0.001)))
(assert (<= (- w_13 w_15) 0.001))
(assert (>= (- w_13 w_15) (- 0.001)))
(assert (<= (- w_13 w_16) 0.001))
(assert (>= (- w_13 w_16) (- 0.001)))
(assert (<= (- w_13 w_17) 0.001))
(assert (>= (- w_13 w_17) (- 0.001)))
(assert (<= (- w_13 w_18) 0.001))
(assert (>= (- w_13 w_18) (- 0.001)))
(assert (<= (- w_13 w_19) 0.001))
(assert (>= (- w_13 w_19) (- 0.001)))
(assert (<= (- w_13 w_20) 0.001))
(assert (>= (- w_13 w_20) (- 0.001)))
(assert (<= (- w_13 w_21) 0.001))
(assert (>= (- w_13 w_21) (- 0.001)))
(assert (<= (- w_13 w_22) 0.001))
(assert (>= (- w_13 w_22) (- 0.001)))
(assert (<= (- w_13 w_23) 0.001))
(assert (>= (- w_13 w_23) (- 0.001)))
(assert (<= (- w_14 w_15) 0.001))
(assert (>= (- w_14 w_15) (- 0.001)))
(assert (<= (- w_14 w_16) 0.001))
(assert (>= (- w_14 w_16) (- 0.001)))
(assert (<= (- w_14 w_17) 0.001))
(assert (>= (- w_14 w_17) (- 0.001)))
(assert (<= (- w_14 w_18) 0.001))
(assert (>= (- w_14 w_18) (- 0.001)))
(assert (<= (- w_14 w_19) 0.001))
(assert (>= (- w_14 w_19) (- 0.001)))
(assert (<= (- w_14 w_20) 0.001))
(assert (>= (- w_14 w_20) (- 0.001)))
(assert (<= (- w_14 w_21) 0.001))
(assert (>= (- w_14 w_21) (- 0.001)))
(assert (<= (- w_14 w_22) 0.001))
(assert (>= (- w_14 w_22) (- 0.001)))
(assert (<= (- w_14 w_23) 0.001))
(assert (>= (- w_14 w_23) (- 0.001)))
(assert (<= (- w_15 w_16) 0.001))
(assert (>= (- w_15 w_16) (- 0.001)))
(assert (<= (- w_15 w_17) 0.001))
(assert (>= (- w_15 w_17) (- 0.001)))
(assert (<= (- w_15 w_18) 0.001))
(assert (>= (- w_15 w_18) (- 0.001)))
(assert (<= (- w_15 w_19) 0.001))
(assert (>= (- w_15 w_19) (- 0.001)))
(assert (<= (- w_15 w_20) 0.001))
(assert (>= (- w_15 w_20) (- 0.001)))
(assert (<= (- w_15 w_21) 0.001))
(assert (>= (- w_15 w_21) (- 0.001)))
(assert (<= (- w_15 w_22) 0.001))
(assert (>= (- w_15 w_22) (- 0.001)))
(assert (<= (- w_15 w_23) 0.001))
(assert (>= (- w_15 w_23) (- 0.001)))
(assert (<= (- w_16 w_17) 0.001))
(assert (>= (- w_16 w_17) (- 0.001)))
(assert (<= (- w_16 w_18) 0.001))
(assert (>= (- w_16 w_18) (- 0.001)))
(assert (<= (- w_16 w_19) 0.001))
(assert (>= (- w_16 w_19) (- 0.001)))
(assert (<= (- w_16 w_20) 0.001))
(assert (>= (- w_16 w_20) (- 0.001)))
(assert (<= (- w_16 w_21) 0.001))
(assert (>= (- w_16 w_21) (- 0.001)))
(assert (<= (- w_16 w_22) 0.001))
(assert (>= (- w_16 w_22) (- 0.001)))
(assert (<= (- w_16 w_23) 0.001))
(assert (>= (- w_16 w_23) (- 0.001)))
(assert (<= (- w_17 w_18) 0.001))
(assert (>= (- w_17 w_18) (- 0.001)))
(assert (<= (- w_17 w_19) 0.001))
(assert (>= (- w_17 w_19) (- 0.001)))
(assert (<= (- w_17 w_20) 0.001))
(assert (>= (- w_17 w_20) (- 0.001)))
(assert (<= (- w_17 w_21) 0.001))
(assert (>= (- w_17 w_21) (- 0.001)))
(assert (<= (- w_17 w_22) 0.001))
(assert (>= (- w_17 w_22) (- 0.001)))
(assert (<= (- w_17 w_23) 0.001))
(assert (>= (- w_17 w_23) (- 0.001)))
(assert (<= (- w_18 w_19) 0.001))
(assert (>= (- w_18 w_19) (- 0.001)))
(assert (<= (- w_18 w_20) 0.001))
(assert (>= (- w_18 w_20) (- 0.001)))
(assert (<= (- w_18 w_21) 0.001))
(assert (>= (- w_18 w_21) (- 0.001)))
(assert (<= (- w_18 w_22) 0.001))
(assert (>= (- w_18 w_22) (- 0.001)))
(assert (<= (- w_18 w_23) 0.001))
(assert (>= (- w_18 w_23) (- 0.001)))
(assert (<= (- w_19 w_20) 0.001))
(assert (>= (- w_19 w_20) (- 0.001)))
(assert (<= (- w_19 w_21) 0.001))
(assert (>= (- w_19 w_21) (- 0.001)))
(assert (<= (- w_19 w_22) 0.001))
(assert (>= (- w_19 w_22) (- 0.001)))
(assert (<= (- w_19 w_23) 0.001))
(assert (>= (- w_19 w_23) (- 0.001)))
(assert (<= (- w_20 w_21) 0.001))
(assert (>= (- w_20 w_21) (- 0.001)))
(assert (<= (- w_20 w_22) 0.001))
(assert (>= (- w_20 w_22) (- 0.001)))
(assert (<= (- w_20 w_23) 0.001))
(assert (>= (- w_20 w_23) (- 0.001)))
(assert (<= (- w_21 w_22) 0.001))
(assert (>= (- w_21 w_22) (- 0.001)))
(assert (<= (- w_21 w_23) 0.001))
(assert (>= (- w_21 w_23) (- 0.001)))
(assert (<= (- w_22 w_23) 0.001))
(assert (>= (- w_22 w_23) (- 0.001)))
(assert (<= (- w_25 w_26) 0.001))
(assert (>= (- w_25 w_26) (- 0.001)))
(assert (<= (- w_25 w_27) 0.001))
(assert (>= (- w_25 w_27) (- 0.001)))
(assert (<= (- w_25 w_28) 0.001))
(assert (>= (- w_25 w_28) (- 0.001)))
(assert (<= (- w_25 w_77) 0.001))
(assert (>= (- w_25 w_77) (- 0.001)))
(assert (<= (- w_25 w_78) 0.001))
(assert (>= (- w_25 w_78) (- 0.001)))
(assert (<= (- w_26 w_27) 0.001))
(assert (>= (- w_26 w_27) (- 0.001)))
(assert (<= (- w_26 w_28) 0.001))
(assert (>= (- w_26 w_28) (- 0.001)))
(assert (<= (- w_26 w_77) 0.001))
(assert (>= (- w_26 w_77) (- 0.001)))
(assert (<= (- w_26 w_78) 0.001))
(assert (>= (- w_26 w_78) (- 0.001)))
(assert (<= (- w_27 w_28) 0.001))
(assert (>= (- w_27 w_28) (- 0.001)))
(assert (<= (- w_27 w_77) 0.001))
(assert (>= (- w_27 w_77) (- 0.001)))
(assert (<= (- w_27 w_78) 0.001))
(assert (>= (- w_27 w_78) (- 0.001)))
(assert (<= (- w_28 w_77) 0.001))
(assert (>= (- w_28 w_77) (- 0.001)))
(assert (<= (- w_28 w_78) 0.001))
(assert (>= (- w_28 w_78) (- 0.001)))
(assert (<= (- w_29 w_30) 0.001))
(assert (>= (- w_29 w_30) (- 0.001)))
(assert (<= (- w_29 w_31) 0.001))
(assert (>= (- w_29 w_31) (- 0.001)))
(assert (<= (- w_29 w_32) 0.001))
(assert (>= (- w_29 w_32) (- 0.001)))
(assert (<= (- w_29 w_33) 0.001))
(assert (>= (- w_29 w_33) (- 0.001)))
(assert (<= (- w_29 w_34) 0.001))
(assert (>= (- w_29 w_34) (- 0.001)))
(assert (<= (- w_29 w_35) 0.001))
(assert (>= (- w_29 w_35) (- 0.001)))
(assert (<= (- w_29 w_36) 0.001))
(assert (>= (- w_29 w_36) (- 0.001)))
(assert (<= (- w_29 w_37) 0.001))
(assert (>= (- w_29 w_37) (- 0.001)))
(assert (<= (- w_29 w_38) 0.001))
(assert (>= (- w_29 w_38) (- 0.001)))
(assert (<= (- w_29 w_39) 0.001))
(assert (>= (- w_29 w_39) (- 0.001)))
(assert (<= (- w_29 w_40) 0.001))
(assert (>= (- w_29 w_40) (- 0.001)))
(assert (<= (- w_29 w_41) 0.001))
(assert (>= (- w_29 w_41) (- 0.001)))
(assert (<= (- w_29 w_42) 0.001))
(assert (>= (- w_29 w_42) (- 0.001)))
(assert (<= (- w_29 w_43) 0.001))
(assert (>= (- w_29 w_43) (- 0.001)))
(assert (<= (- w_29 w_44) 0.001))
(assert (>= (- w_29 w_44) (- 0.001)))
(assert (<= (- w_29 w_45) 0.001))
(assert (>= (- w_29 w_45) (- 0.001)))
(assert (<= (- w_30 w_31) 0.001))
(assert (>= (- w_30 w_31) (- 0.001)))
(assert (<= (- w_30 w_32) 0.001))
(assert (>= (- w_30 w_32) (- 0.001)))
(assert (<= (- w_30 w_33) 0.001))
(assert (>= (- w_30 w_33) (- 0.001)))
(assert (<= (- w_30 w_34) 0.001))
(assert (>= (- w_30 w_34) (- 0.001)))
(assert (<= (- w_30 w_35) 0.001))
(assert (>= (- w_30 w_35) (- 0.001)))
(assert (<= (- w_30 w_36) 0.001))
(assert (>= (- w_30 w_36) (- 0.001)))
(assert (<= (- w_30 w_37) 0.001))
(assert (>= (- w_30 w_37) (- 0.001)))
(assert (<= (- w_30 w_38) 0.001))
(assert (>= (- w_30 w_38) (- 0.001)))
(assert (<= (- w_30 w_39) 0.001))
(assert (>= (- w_30 w_39) (- 0.001)))
(assert (<= (- w_30 w_40) 0.001))
(assert (>= (- w_30 w_40) (- 0.001)))
(assert (<= (- w_30 w_41) 0.001))
(assert (>= (- w_30 w_41) (- 0.001)))
(assert (<= (- w_30 w_42) 0.001))
(assert (>= (- w_30 w_42) (- 0.001)))
(assert (<= (- w_30 w_43) 0.001))
(assert (>= (- w_30 w_43) (- 0.001)))
(assert (<= (- w_30 w_44) 0.001))
(assert (>= (- w_30 w_44) (- 0.001)))
(assert (<= (- w_30 w_45) 0.001))
(assert (>= (- w_30 w_45) (- 0.001)))
(assert (<= (- w_31 w_32) 0.001))
(assert (>= (- w_31 w_32) (- 0.001)))
(assert (<= (- w_31 w_33) 0.001))
(assert (>= (- w_31 w_33) (- 0.001)))
(assert (<= (- w_31 w_34) 0.001))
(assert (>= (- w_31 w_34) (- 0.001)))
(assert (<= (- w_31 w_35) 0.001))
(assert (>= (- w_31 w_35) (- 0.001)))
(assert (<= (- w_31 w_36) 0.001))
(assert (>= (- w_31 w_36) (- 0.001)))
(assert (<= (- w_31 w_37) 0.001))
(assert (>= (- w_31 w_37) (- 0.001)))
(assert (<= (- w_31 w_38) 0.001))
(assert (>= (- w_31 w_38) (- 0.001)))
(assert (<= (- w_31 w_39) 0.001))
(assert (>= (- w_31 w_39) (- 0.001)))
(assert (<= (- w_31 w_40) 0.001))
(assert (>= (- w_31 w_40) (- 0.001)))
(assert (<= (- w_31 w_41) 0.001))
(assert (>= (- w_31 w_41) (- 0.001)))
(assert (<= (- w_31 w_42) 0.001))
(assert (>= (- w_31 w_42) (- 0.001)))
(assert (<= (- w_31 w_43) 0.001))
(assert (>= (- w_31 w_43) (- 0.001)))
(assert (<= (- w_31 w_44) 0.001))
(assert (>= (- w_31 w_44) (- 0.001)))
(assert (<= (- w_31 w_45) 0.001))
(assert (>= (- w_31 w_45) (- 0.001)))
(assert (<= (- w_32 w_33) 0.001))
(assert (>= (- w_32 w_33) (- 0.001)))
(assert (<= (- w_32 w_34) 0.001))
(assert (>= (- w_32 w_34) (- 0.001)))
(assert (<= (- w_32 w_35) 0.001))
(assert (>= (- w_32 w_35) (- 0.001)))
(assert (<= (- w_32 w_36) 0.001))
(assert (>= (- w_32 w_36) (- 0.001)))
(assert (<= (- w_32 w_37) 0.001))
(assert (>= (- w_32 w_37) (- 0.001)))
(assert (<= (- w_32 w_38) 0.001))
(assert (>= (- w_32 w_38) (- 0.001)))
(assert (<= (- w_32 w_39) 0.001))
(assert (>= (- w_32 w_39) (- 0.001)))
(assert (<= (- w_32 w_40) 0.001))
(assert (>= (- w_32 w_40) (- 0.001)))
(assert (<= (- w_32 w_41) 0.001))
(assert (>= (- w_32 w_41) (- 0.001)))
(assert (<= (- w_32 w_42) 0.001))
(assert (>= (- w_32 w_42) (- 0.001)))
(assert (<= (- w_32 w_43) 0.001))
(assert (>= (- w_32 w_43) (- 0.001)))
(assert (<= (- w_32 w_44) 0.001))
(assert (>= (- w_32 w_44) (- 0.001)))
(assert (<= (- w_32 w_45) 0.001))
(assert (>= (- w_32 w_45) (- 0.001)))
(assert (<= (- w_33 w_34) 0.001))
(assert (>= (- w_33 w_34) (- 0.001)))
(assert (<= (- w_33 w_35) 0.001))
(assert (>= (- w_33 w_35) (- 0.001)))
(assert (<= (- w_33 w_36) 0.001))
(assert (>= (- w_33 w_36) (- 0.001)))
(assert (<= (- w_33 w_37) 0.001))
(assert (>= (- w_33 w_37) (- 0.001)))
(assert (<= (- w_33 w_38) 0.001))
(assert (>= (- w_33 w_38) (- 0.001)))
(assert (<= (- w_33 w_39) 0.001))
(assert (>= (- w_33 w_39) (- 0.001)))
(assert (<= (- w_33 w_40) 0.001))
(assert (>= (- w_33 w_40) (- 0.001)))
(assert (<= (- w_33 w_41) 0.001))
(assert (>= (- w_33 w_41) (- 0.001)))
(assert (<= (- w_33 w_42) 0.001))
(assert (>= (- w_33 w_42) (- 0.001)))
(assert (<= (- w_33 w_43) 0.001))
(assert (>= (- w_33 w_43) (- 0.001)))
(assert (<= (- w_33 w_44) 0.001))
(assert (>= (- w_33 w_44) (- 0.001)))
(assert (<= (- w_33 w_45) 0.001))
(assert (>= (- w_33 w_45) (- 0.001)))
(assert (<= (- w_34 w_35) 0.001))
(assert (>= (- w_34 w_35) (- 0.001)))
(assert (<= (- w_34 w_36) 0.001))
(assert (>= (- w_34 w_36) (- 0.001)))
(assert (<= (- w_34 w_37) 0.001))
(assert (>= (- w_34 w_37) (- 0.001)))
(assert (<= (- w_34 w_38) 0.001))
(assert (>= (- w_34 w_38) (- 0.001)))
(assert (<= (- w_34 w_39) 0.001))
(assert (>= (- w_34 w_39) (- 0.001)))
(assert (<= (- w_34 w_40) 0.001))
(assert (>= (- w_34 w_40) (- 0.001)))
(assert (<= (- w_34 w_41) 0.001))
(assert (>= (- w_34 w_41) (- 0.001)))
(assert (<= (- w_34 w_42) 0.001))
(assert (>= (- w_34 w_42) (- 0.001)))
(assert (<= (- w_34 w_43) 0.001))
(assert (>= (- w_34 w_43) (- 0.001)))
(assert (<= (- w_34 w_44) 0.001))
(assert (>= (- w_34 w_44) (- 0.001)))
(assert (<= (- w_34 w_45) 0.001))
(assert (>= (- w_34 w_45) (- 0.001)))
(assert (<= (- w_35 w_36) 0.001))
(assert (>= (- w_35 w_36) (- 0.001)))
(assert (<= (- w_35 w_37) 0.001))
(assert (>= (- w_35 w_37) (- 0.001)))
(assert (<= (- w_35 w_38) 0.001))
(assert (>= (- w_35 w_38) (- 0.001)))
(assert (<= (- w_35 w_39) 0.001))
(assert (>= (- w_35 w_39) (- 0.001)))
(assert (<= (- w_35 w_40) 0.001))
(assert (>= (- w_35 w_40) (- 0.001)))
(assert (<= (- w_35 w_41) 0.001))
(assert (>= (- w_35 w_41) (- 0.001)))
(assert (<= (- w_35 w_42) 0.001))
(assert (>= (- w_35 w_42) (- 0.001)))
(assert (<= (- w_35 w_43) 0.001))
(assert (>= (- w_35 w_43) (- 0.001)))
(assert (<= (- w_35 w_44) 0.001))
(assert (>= (- w_35 w_44) (- 0.001)))
(assert (<= (- w_35 w_45) 0.001))
(assert (>= (- w_35 w_45) (- 0.001)))
(assert (<= (- w_36 w_37) 0.001))
(assert (>= (- w_36 w_37) (- 0.001)))
(assert (<= (- w_36 w_38) 0.001))
(assert (>= (- w_36 w_38) (- 0.001)))
(assert (<= (- w_36 w_39) 0.001))
(assert (>= (- w_36 w_39) (- 0.001)))
(assert (<= (- w_36 w_40) 0.001))
(assert (>= (- w_36 w_40) (- 0.001)))
(assert (<= (- w_36 w_41) 0.001))
(assert (>= (- w_36 w_41) (- 0.001)))
(assert (<= (- w_36 w_42) 0.001))
(assert (>= (- w_36 w_42) (- 0.001)))
(assert (<= (- w_36 w_43) 0.001))
(assert (>= (- w_36 w_43) (- 0.001)))
(assert (<= (- w_36 w_44) 0.001))
(assert (>= (- w_36 w_44) (- 0.001)))
(assert (<= (- w_36 w_45) 0.001))
(assert (>= (- w_36 w_45) (- 0.001)))
(assert (<= (- w_37 w_38) 0.001))
(assert (>= (- w_37 w_38) (- 0.001)))
(assert (<= (- w_37 w_39) 0.001))
(assert (>= (- w_37 w_39) (- 0.001)))
(assert (<= (- w_37 w_40) 0.001))
(assert (>= (- w_37 w_40) (- 0.001)))
(assert (<= (- w_37 w_41) 0.001))
(assert (>= (- w_37 w_41) (- 0.001)))
(assert (<= (- w_37 w_42) 0.001))
(assert (>= (- w_37 w_42) (- 0.001)))
(assert (<= (- w_37 w_43) 0.001))
(assert (>= (- w_37 w_43) (- 0.001)))
(assert (<= (- w_37 w_44) 0.001))
(assert (>= (- w_37 w_44) (- 0.001)))
(assert (<= (- w_37 w_45) 0.001))
(assert (>= (- w_37 w_45) (- 0.001)))
(assert (<= (- w_38 w_39) 0.001))
(assert (>= (- w_38 w_39) (- 0.001)))
(assert (<= (- w_38 w_40) 0.001))
(assert (>= (- w_38 w_40) (- 0.001)))
(assert (<= (- w_38 w_41) 0.001))
(assert (>= (- w_38 w_41) (- 0.001)))
(assert (<= (- w_38 w_42) 0.001))
(assert (>= (- w_38 w_42) (- 0.001)))
(assert (<= (- w_38 w_43) 0.001))
(assert (>= (- w_38 w_43) (- 0.001)))
(assert (<= (- w_38 w_44) 0.001))
(assert (>= (- w_38 w_44) (- 0.001)))
(assert (<= (- w_38 w_45) 0.001))
(assert (>= (- w_38 w_45) (- 0.001)))
(assert (<= (- w_39 w_40) 0.001))
(assert (>= (- w_39 w_40) (- 0.001)))
(assert (<= (- w_39 w_41) 0.001))
(assert (>= (- w_39 w_41) (- 0.001)))
(assert (<= (- w_39 w_42) 0.001))
(assert (>= (- w_39 w_42) (- 0.001)))
(assert (<= (- w_39 w_43) 0.001))
(assert (>= (- w_39 w_43) (- 0.001)))
(assert (<= (- w_39 w_44) 0.001))
(assert (>= (- w_39 w_44) (- 0.001)))
(assert (<= (- w_39 w_45) 0.001))
(assert (>= (- w_39 w_45) (- 0.001)))
(assert (<= (- w_40 w_41) 0.001))
(assert (>= (- w_40 w_41) (- 0.001)))
(assert (<= (- w_40 w_42) 0.001))
(assert (>= (- w_40 w_42) (- 0.001)))
(assert (<= (- w_40 w_43) 0.001))
(assert (>= (- w_40 w_43) (- 0.001)))
(assert (<= (- w_40 w_44) 0.001))
(assert (>= (- w_40 w_44) (- 0.001)))
(assert (<= (- w_40 w_45) 0.001))
(assert (>= (- w_40 w_45) (- 0.001)))
(assert (<= (- w_41 w_42) 0.001))
(assert (>= (- w_41 w_42) (- 0.001)))
(assert (<= (- w_41 w_43) 0.001))
(assert (>= (- w_41 w_43) (- 0.001)))
(assert (<= (- w_41 w_44) 0.001))
(assert (>= (- w_41 w_44) (- 0.001)))
(assert (<= (- w_41 w_45) 0.001))
(assert (>= (- w_41 w_45) (- 0.001)))
(assert (<= (- w_42 w_43) 0.001))
(assert (>= (- w_42 w_43) (- 0.001)))
(assert (<= (- w_42 w_44) 0.001))
(assert (>= (- w_42 w_44) (- 0.001)))
(assert (<= (- w_42 w_45) 0.001))
(assert (>= (- w_42 w_45) (- 0.001)))
(assert (<= (- w_43 w_44) 0.001))
(assert (>= (- w_43 w_44) (- 0.001)))
(assert (<= (- w_43 w_45) 0.001))
(assert (>= (- w_43 w_45) (- 0.001)))
(assert (<= (- w_44 w_45) 0.001))
(assert (>= (- w_44 w_45) (- 0.001)))
(assert (<= (- w_46 w_52) 0.001))
(assert (>= (- w_46 w_52) (- 0.001)))
(assert (<= (- w_46 w_53) 0.001))
(assert (>= (- w_46 w_53) (- 0.001)))
(assert (<= (- w_48 w_51) 0.001))
(assert (>= (- w_48 w_51) (- 0.001)))
(assert (<= (- w_52 w_53) 0.001))
(assert (>= (- w_52 w_53) (- 0.001)))
(assert (<= (- w_54 w_55) 0.001))
(assert (>= (- w_54 w_55) (- 0.001)))
(assert (<= (- w_54 w_56) 0.001))
(assert (>= (- w_54 w_56) (- 0.001)))
(assert (<= (- w_54 w_57) 0.001))
(assert (>= (- w_54 w_57) (- 0.001)))
(assert (<= (- w_55 w_56) 0.001))
(assert (>= (- w_55 w_56) (- 0.001)))
(assert (<= (- w_55 w_57) 0.001))
(assert (>= (- w_55 w_57) (- 0.001)))
(assert (<= (- w_56 w_57) 0.001))
(assert (>= (- w_56 w_57) (- 0.001)))
(assert (<= (- w_59 w_60) 0.001))
(assert (>= (- w_59 w_60) (- 0.001)))
(assert (<= (- w_59 w_61) 0.001))
(assert (>= (- w_59 w_61) (- 0.001)))
(assert (<= (- w_59 w_62) 0.001))
(assert (>= (- w_59 w_62) (- 0.001)))
(assert (<= (- w_59 w_63) 0.001))
(assert (>= (- w_59 w_63) (- 0.001)))
(assert (<= (- w_59 w_64) 0.001))
(assert (>= (- w_59 w_64) (- 0.001)))
(assert (<= (- w_59 w_65) 0.001))
(assert (>= (- w_59 w_65) (- 0.001)))
(assert (<= (- w_59 w_66) 0.001))
(assert (>= (- w_59 w_66) (- 0.001)))
(assert (<= (- w_59 w_67) 0.001))
(assert (>= (- w_59 w_67) (- 0.001)))
(assert (<= (- w_59 w_68) 0.001))
(assert (>= (- w_59 w_68) (- 0.001)))
(assert (<= (- w_59 w_69) 0.001))
(assert (>= (- w_59 w_69) (- 0.001)))
(assert (<= (- w_59 w_70) 0.001))
(assert (>= (- w_59 w_70) (- 0.001)))
(assert (<= (- w_59 w_71) 0.001))
(assert (>= (- w_59 w_71) (- 0.001)))
(assert (<= (- w_59 w_72) 0.001))
(assert (>= (- w_59 w_72) (- 0.001)))
(assert (<= (- w_59 w_73) 0.001))
(assert (>= (- w_59 w_73) (- 0.001)))
(assert (<= (- w_59 w_74) 0.001))
(assert (>= (- w_59 w_74) (- 0.001)))
(assert (<= (- w_59 w_75) 0.001))
(assert (>= (- w_59 w_75) (- 0.001)))
(assert (<= (- w_59 w_76) 0.001))
(assert (>= (- w_59 w_76) (- 0.001)))
(assert (<= (- w_60 w_61) 0.001))
(assert (>= (- w_60 w_61) (- 0.001)))
(assert (<= (- w_60 w_62) 0.001))
(assert (>= (- w_60 w_62) (- 0.001)))
(assert (<= (- w_60 w_63) 0.001))
(assert (>= (- w_60 w_63) (- 0.001)))
(assert (<= (- w_60 w_64) 0.001))
(assert (>= (- w_60 w_64) (- 0.001)))
(assert (<= (- w_60 w_65) 0.001))
(assert (>= (- w_60 w_65) (- 0.001)))
(assert (<= (- w_60 w_66) 0.001))
(assert (>= (- w_60 w_66) (- 0.001)))
(assert (<= (- w_60 w_67) 0.001))
(assert (>= (- w_60 w_67) (- 0.001)))
(assert (<= (- w_60 w_68) 0.001))
(assert (>= (- w_60 w_68) (- 0.001)))
(assert (<= (- w_60 w_69) 0.001))
(assert (>= (- w_60 w_69) (- 0.001)))
(assert (<= (- w_60 w_70) 0.001))
(assert (>= (- w_60 w_70) (- 0.001)))
(assert (<= (- w_60 w_71) 0.001))
(assert (>= (- w_60 w_71) (- 0.001)))
(assert (<= (- w_60 w_72) 0.001))
(assert (>= (- w_60 w_72) (- 0.001)))
(assert (<= (- w_60 w_73) 0.001))
(assert (>= (- w_60 w_73) (- 0.001)))
(assert (<= (- w_60 w_74) 0.001))
(assert (>= (- w_60 w_74) (- 0.001)))
(assert (<= (- w_60 w_75) 0.001))
(assert (>= (- w_60 w_75) (- 0.001)))
(assert (<= (- w_60 w_76) 0.001))
(assert (>= (- w_60 w_76) (- 0.001)))
(assert (<= (- w_61 w_62) 0.001))
(assert (>= (- w_61 w_62) (- 0.001)))
(assert (<= (- w_61 w_63) 0.001))
(assert (>= (- w_61 w_63) (- 0.001)))
(assert (<= (- w_61 w_64) 0.001))
(assert (>= (- w_61 w_64) (- 0.001)))
(assert (<= (- w_61 w_65) 0.001))
(assert (>= (- w_61 w_65) (- 0.001)))
(assert (<= (- w_61 w_66) 0.001))
(assert (>= (- w_61 w_66) (- 0.001)))
(assert (<= (- w_61 w_67) 0.001))
(assert (>= (- w_61 w_67) (- 0.001)))
(assert (<= (- w_61 w_68) 0.001))
(assert (>= (- w_61 w_68) (- 0.001)))
(assert (<= (- w_61 w_69) 0.001))
(assert (>= (- w_61 w_69) (- 0.001)))
(assert (<= (- w_61 w_70) 0.001))
(assert (>= (- w_61 w_70) (- 0.001)))
(assert (<= (- w_61 w_71) 0.001))
(assert (>= (- w_61 w_71) (- 0.001)))
(assert (<= (- w_61 w_72) 0.001))
(assert (>= (- w_61 w_72) (- 0.001)))
(assert (<= (- w_61 w_73) 0.001))
(assert (>= (- w_61 w_73) (- 0.001)))
(assert (<= (- w_61 w_74) 0.001))
(assert (>= (- w_61 w_74) (- 0.001)))
(assert (<= (- w_61 w_75) 0.001))
(assert (>= (- w_61 w_75) (- 0.001)))
(assert (<= (- w_61 w_76) 0.001))
(assert (>= (- w_61 w_76) (- 0.001)))
(assert (<= (- w_62 w_63) 0.001))
(assert (>= (- w_62 w_63) (- 0.001)))
(assert (<= (- w_62 w_64) 0.001))
(assert (>= (- w_62 w_64) (- 0.001)))
(assert (<= (- w_62 w_65) 0.001))
(assert (>= (- w_62 w_65) (- 0.001)))
(assert (<= (- w_62 w_66) 0.001))
(assert (>= (- w_62 w_66) (- 0.001)))
(assert (<= (- w_62 w_67) 0.001))
(assert (>= (- w_62 w_67) (- 0.001)))
(assert (<= (- w_62 w_68) 0.001))
(assert (>= (- w_62 w_68) (- 0.001)))
(assert (<= (- w_62 w_69) 0.001))
(assert (>= (- w_62 w_69) (- 0.001)))
(assert (<= (- w_62 w_70) 0.001))
(assert (>= (- w_62 w_70) (- 0.001)))
(assert (<= (- w_62 w_71) 0.001))
(assert (>= (- w_62 w_71) (- 0.001)))
(assert (<= (- w_62 w_72) 0.001))
(assert (>= (- w_62 w_72) (- 0.001)))
(assert (<= (- w_62 w_73) 0.001))
(assert (>= (- w_62 w_73) (- 0.001)))
(assert (<= (- w_62 w_74) 0.001))
(assert (>= (- w_62 w_74) (- 0.001)))
(assert (<= (- w_62 w_75) 0.001))
(assert (>= (- w_62 w_75) (- 0.001)))
(assert (<= (- w_62 w_76) 0.001))
(assert (>= (- w_62 w_76) (- 0.001)))
(assert (<= (- w_63 w_64) 0.001))
(assert (>= (- w_63 w_64) (- 0.001)))
(assert (<= (- w_63 w_65) 0.001))
(assert (>= (- w_63 w_65) (- 0.001)))
(assert (<= (- w_63 w_66) 0.001))
(assert (>= (- w_63 w_66) (- 0.001)))
(assert (<= (- w_63 w_67) 0.001))
(assert (>= (- w_63 w_67) (- 0.001)))
(assert (<= (- w_63 w_68) 0.001))
(assert (>= (- w_63 w_68) (- 0.001)))
(assert (<= (- w_63 w_69) 0.001))
(assert (>= (- w_63 w_69) (- 0.001)))
(assert (<= (- w_63 w_70) 0.001))
(assert (>= (- w_63 w_70) (- 0.001)))
(assert (<= (- w_63 w_71) 0.001))
(assert (>= (- w_63 w_71) (- 0.001)))
(assert (<= (- w_63 w_72) 0.001))
(assert (>= (- w_63 w_72) (- 0.001)))
(assert (<= (- w_63 w_73) 0.001))
(assert (>= (- w_63 w_73) (- 0.001)))
(assert (<= (- w_63 w_74) 0.001))
(assert (>= (- w_63 w_74) (- 0.001)))
(assert (<= (- w_63 w_75) 0.001))
(assert (>= (- w_63 w_75) (- 0.001)))
(assert (<= (- w_63 w_76) 0.001))
(assert (>= (- w_63 w_76) (- 0.001)))
(assert (<= (- w_64 w_65) 0.001))
(assert (>= (- w_64 w_65) (- 0.001)))
(assert (<= (- w_64 w_66) 0.001))
(assert (>= (- w_64 w_66) (- 0.001)))
(assert (<= (- w_64 w_67) 0.001))
(assert (>= (- w_64 w_67) (- 0.001)))
(assert (<= (- w_64 w_68) 0.001))
(assert (>= (- w_64 w_68) (- 0.001)))
(assert (<= (- w_64 w_69) 0.001))
(assert (>= (- w_64 w_69) (- 0.001)))
(assert (<= (- w_64 w_70) 0.001))
(assert (>= (- w_64 w_70) (- 0.001)))
(assert (<= (- w_64 w_71) 0.001))
(assert (>= (- w_64 w_71) (- 0.001)))
(assert (<= (- w_64 w_72) 0.001))
(assert (>= (- w_64 w_72) (- 0.001)))
(assert (<= (- w_64 w_73) 0.001))
(assert (>= (- w_64 w_73) (- 0.001)))
(assert (<= (- w_64 w_74) 0.001))
(assert (>= (- w_64 w_74) (- 0.001)))
(assert (<= (- w_64 w_75) 0.001))
(assert (>= (- w_64 w_75) (- 0.001)))
(assert (<= (- w_64 w_76) 0.001))
(assert (>= (- w_64 w_76) (- 0.001)))
(assert (<= (- w_65 w_66) 0.001))
(assert (>= (- w_65 w_66) (- 0.001)))
(assert (<= (- w_65 w_67) 0.001))
(assert (>= (- w_65 w_67) (- 0.001)))
(assert (<= (- w_65 w_68) 0.001))
(assert (>= (- w_65 w_68) (- 0.001)))
(assert (<= (- w_65 w_69) 0.001))
(assert (>= (- w_65 w_69) (- 0.001)))
(assert (<= (- w_65 w_70) 0.001))
(assert (>= (- w_65 w_70) (- 0.001)))
(assert (<= (- w_65 w_71) 0.001))
(assert (>= (- w_65 w_71) (- 0.001)))
(assert (<= (- w_65 w_72) 0.001))
(assert (>= (- w_65 w_72) (- 0.001)))
(assert (<= (- w_65 w_73) 0.001))
(assert (>= (- w_65 w_73) (- 0.001)))
(assert (<= (- w_65 w_74) 0.001))
(assert (>= (- w_65 w_74) (- 0.001)))
(assert (<= (- w_65 w_75) 0.001))
(assert (>= (- w_65 w_75) (- 0.001)))
(assert (<= (- w_65 w_76) 0.001))
(assert (>= (- w_65 w_76) (- 0.001)))
(assert (<= (- w_66 w_67) 0.001))
(assert (>= (- w_66 w_67) (- 0.001)))
(assert (<= (- w_66 w_68) 0.001))
(assert (>= (- w_66 w_68) (- 0.001)))
(assert (<= (- w_66 w_69) 0.001))
(assert (>= (- w_66 w_69) (- 0.001)))
(assert (<= (- w_66 w_70) 0.001))
(assert (>= (- w_66 w_70) (- 0.001)))
(assert (<= (- w_66 w_71) 0.001))
(assert (>= (- w_66 w_71) (- 0.001)))
(assert (<= (- w_66 w_72) 0.001))
(assert (>= (- w_66 w_72) (- 0.001)))
(assert (<= (- w_66 w_73) 0.001))
(assert (>= (- w_66 w_73) (- 0.001)))
(assert (<= (- w_66 w_74) 0.001))
(assert (>= (- w_66 w_74) (- 0.001)))
(assert (<= (- w_66 w_75) 0.001))
(assert (>= (- w_66 w_75) (- 0.001)))
(assert (<= (- w_66 w_76) 0.001))
(assert (>= (- w_66 w_76) (- 0.001)))
(assert (<= (- w_67 w_68) 0.001))
(assert (>= (- w_67 w_68) (- 0.001)))
(assert (<= (- w_67 w_69) 0.001))
(assert (>= (- w_67 w_69) (- 0.001)))
(assert (<= (- w_67 w_70) 0.001))
(assert (>= (- w_67 w_70) (- 0.001)))
(assert (<= (- w_67 w_71) 0.001))
(assert (>= (- w_67 w_71) (- 0.001)))
(assert (<= (- w_67 w_72) 0.001))
(assert (>= (- w_67 w_72) (- 0.001)))
(assert (<= (- w_67 w_73) 0.001))
(assert (>= (- w_67 w_73) (- 0.001)))
(assert (<= (- w_67 w_74) 0.001))
(assert (>= (- w_67 w_74) (- 0.001)))
(assert (<= (- w_67 w_75) 0.001))
(assert (>= (- w_67 w_75) (- 0.001)))
(assert (<= (- w_67 w_76) 0.001))
(assert (>= (- w_67 w_76) (- 0.001)))
(assert (<= (- w_68 w_69) 0.001))
(assert (>= (- w_68 w_69) (- 0.001)))
(assert (<= (- w_68 w_70) 0.001))
(assert (>= (- w_68 w_70) (- 0.001)))
(assert (<= (- w_68 w_71) 0.001))
(assert (>= (- w_68 w_71) (- 0.001)))
(assert (<= (- w_68 w_72) 0.001))
(assert (>= (- w_68 w_72) (- 0.001)))
(assert (<= (- w_68 w_73) 0.001))
(assert (>= (- w_68 w_73) (- 0.001)))
(assert (<= (- w_68 w_74) 0.001))
(assert (>= (- w_68 w_74) (- 0.001)))
(assert (<= (- w_68 w_75) 0.001))
(assert (>= (- w_68 w_75) (- 0.001)))
(assert (<= (- w_68 w_76) 0.001))
(assert (>= (- w_68 w_76) (- 0.001)))
(assert (<= (- w_69 w_70) 0.001))
(assert (>= (- w_69 w_70) (- 0.001)))
(assert (<= (- w_69 w_71) 0.001))
(assert (>= (- w_69 w_71) (- 0.001)))
(assert (<= (- w_69 w_72) 0.001))
(assert (>= (- w_69 w_72) (- 0.001)))
(assert (<= (- w_69 w_73) 0.001))
(assert (>= (- w_69 w_73) (- 0.001)))
(assert (<= (- w_69 w_74) 0.001))
(assert (>= (- w_69 w_74) (- 0.001)))
(assert (<= (- w_69 w_75) 0.001))
(assert (>= (- w_69 w_75) (- 0.001)))
(assert (<= (- w_69 w_76) 0.001))
(assert (>= (- w_69 w_76) (- 0.001)))
(assert (<= (- w_70 w_71) 0.001))
(assert (>= (- w_70 w_71) (- 0.001)))
(assert (<= (- w_70 w_72) 0.001))
(assert (>= (- w_70 w_72) (- 0.001)))
(assert (<= (- w_70 w_73) 0.001))
(assert (>= (- w_70 w_73) (- 0.001)))
(assert (<= (- w_70 w_74) 0.001))
(assert (>= (- w_70 w_74) (- 0.001)))
(assert (<= (- w_70 w_75) 0.001))
(assert (>= (- w_70 w_75) (- 0.001)))
(assert (<= (- w_70 w_76) 0.001))
(assert (>= (- w_70 w_76) (- 0.001)))
(assert (<= (- w_71 w_72) 0.001))
(assert (>= (- w_71 w_72) (- 0.001)))
(assert (<= (- w_71 w_73) 0.001))
(assert (>= (- w_71 w_73) (- 0.001)))
(assert (<= (- w_71 w_74) 0.001))
(assert (>= (- w_71 w_74) (- 0.001)))
(assert (<= (- w_71 w_75) 0.001))
(assert (>= (- w_71 w_75) (- 0.001)))
(assert (<= (- w_71 w_76) 0.001))
(assert (>= (- w_71 w_76) (- 0.001)))
(assert (<= (- w_72 w_73) 0.001))
(assert (>= (- w_72 w_73) (- 0.001)))
(assert (<= (- w_72 w_74) 0.001))
(assert (>= (- w_72 w_74) (- 0.001)))
(assert (<= (- w_72 w_75) 0.001))
(assert (>= (- w_72 w_75) (- 0.001)))
(assert (<= (- w_72 w_76) 0.001))
(assert (>= (- w_72 w_76) (- 0.001)))
(assert (<= (- w_73 w_74) 0.001))
(assert (>= (- w_73 w_74) (- 0.001)))
(assert (<= (- w_73 w_75) 0.001))
(assert (>= (- w_73 w_75) (- 0.001)))
(assert (<= (- w_73 w_76) 0.001))
(assert (>= (- w_73 w_76) (- 0.001)))
(assert (<= (- w_74 w_75) 0.001))
(assert (>= (- w_74 w_75) (- 0.001)))
(assert (<= (- w_74 w_76) 0.001))
(assert (>= (- w_74 w_76) (- 0.001)))
(assert (<= (- w_75 w_76) 0.001))
(assert (>= (- w_75 w_76) (- 0.001)))
(assert (<= (- w_77 w_78) 0.001))
(assert (>= (- w_77 w_78) (- 0.001)))

; --- dummy: zero-contribution sources have zero weight ---
(assert (<= w_0 0.001))
(assert (>= w_0 (- 0.001)))
(assert (<= w_1 0.001))
(assert (>= w_1 (- 0.001)))
(assert (<= w_9 0.001))
(assert (>= w_9 (- 0.001)))
(assert (<= w_25 0.001))
(assert (>= w_25 (- 0.001)))
(assert (<= w_26 0.001))
(assert (>= w_26 (- 0.001)))
(assert (<= w_27 0.001))
(assert (>= w_27 (- 0.001)))
(assert (<= w_28 0.001))
(assert (>= w_28 (- 0.001)))
(assert (<= w_46 0.001))
(assert (>= w_46 (- 0.001)))
(assert (<= w_47 0.001))
(assert (>= w_47 (- 0.001)))
(assert (<= w_48 0.001))
(assert (>= w_48 (- 0.001)))
(assert (<= w_49 0.001))
(assert (>= w_49 (- 0.001)))
(assert (<= w_50 0.001))
(assert (>= w_50 (- 0.001)))
(assert (<= w_51 0.001))
(assert (>= w_51 (- 0.001)))
(assert (<= w_52 0.001))
(assert (>= w_52 (- 0.001)))
(assert (<= w_53 0.001))
(assert (>= w_53 (- 0.001)))
(assert (<= w_58 0.001))
(assert (>= w_58 (- 0.001)))
(assert (<= w_59 0.001))
(assert (>= w_59 (- 0.001)))
(assert (<= w_60 0.001))
(assert (>= w_60 (- 0.001)))
(assert (<= w_61 0.001))
(assert (>= w_61 (- 0.001)))
(assert (<= w_62 0.001))
(assert (>= w_62 (- 0.001)))
(assert (<= w_63 0.001))
(assert (>= w_63 (- 0.001)))
(assert (<= w_64 0.001))
(assert (>= w_64 (- 0.001)))
(assert (<= w_65 0.001))
(assert (>= w_65 (- 0.001)))
(assert (<= w_66 0.001))
(assert (>= w_66 (- 0.001)))
(assert (<= w_67 0.001))
(assert (>= w_67 (- 0.001)))
(assert (<= w_68 0.001))
(assert (>= w_68 (- 0.001)))
(assert (<= w_69 0.001))
(assert (>= w_69 (- 0.001)))
(assert (<= w_70 0.001))
(assert (>= w_70 (- 0.001)))
(assert (<= w_71 0.001))
(assert (>= w_71 (- 0.001)))
(assert (<= w_72 0.001))
(assert (>= w_72 (- 0.001)))
(assert (<= w_73 0.001))
(assert (>= w_73 (- 0.001)))
(assert (<= w_74 0.001))
(assert (>= w_74 (- 0.001)))
(assert (<= w_75 0.001))
(assert (>= w_75 (- 0.001)))
(assert (<= w_76 0.001))
(assert (>= w_76 (- 0.001)))
(assert (<= w_77 0.001))
(assert (>= w_77 (- 0.001)))
(assert (<= w_78 0.001))
(assert (>= w_78 (- 0.001)))
(assert (<= w_79 0.001))
(assert (>= w_79 (- 0.001)))

(check-sat)
(get-model)
